c colouring generated by benchmark framework
p edge 144 2596
v 1 6
v 2 2
v 3 13
v 4 12
v 5 0
v 6 15
v 7 11
v 8 4
v 9 14
v 10 1
v 11 3
v 12 7
v 13 1
v 14 0
v 15 11
v 16 10
v 17 5
v 18 6
v 19 2
v 20 3
v 21 9
v 22 7
v 23 14
v 24 4
v 25 14
v 26 9
v 27 4
v 28 7
v 29 2
v 30 3
v 31 1
v 32 5
v 33 12
v 34 11
v 35 6
v 36 15
v 37 13
v 38 8
v 39 6
v 40 3
v 41 1
v 42 4
v 43 7
v 44 2
v 45 0
v 46 5
v 47 10
v 48 12
v 49 15
v 50 4
v 51 1
v 52 11
v 53 7
v 54 0
v 55 9
v 56 6
v 57 8
v 58 14
v 59 2
v 60 5
v 61 11
v 62 12
v 63 15
v 64 2
v 65 3
v 66 8
v 67 5
v 68 0
v 69 1
v 70 4
v 71 9
v 72 10
v 73 8
v 74 14
v 75 5
v 76 6
v 77 4
v 78 10
v 79 12
v 80 9
v 81 3
v 82 0
v 83 7
v 84 11
v 85 5
v 86 6
v 87 10
v 88 1
v 89 9
v 90 11
v 91 0
v 92 15
v 93 4
v 94 8
v 95 13
v 96 3
v 97 9
v 98 13
v 99 0
v 100 4
v 101 10
v 102 5
v 103 6
v 104 8
v 105 2
v 106 3
v 107 12
v 108 14
v 109 4
v 110 11
v 111 2
v 112 9
v 113 6
v 114 7
v 115 3
v 116 12
v 117 5
v 118 10
v 119 8
v 120 1
v 121 10
v 122 1
v 123 3
v 124 8
v 125 11
v 126 13
v 127 4
v 128 14
v 129 7
v 130 2
v 131 5
v 132 6
v 133 3
v 134 15
v 135 7
v 136 0
v 137 12
v 138 14
v 139 8
v 140 11
v 141 10
v 142 13
v 143 4
v 144 9
